(declare-fun temp142_1 () (_ BitVec 64))
(declare-fun var2166536 () (_ BitVec 64))
(declare-fun temp142_3 () (_ BitVec 64))
(declare-fun temp142_2 () (_ BitVec 64))
(declare-fun temp142_4 () (_ BitVec 64))
(declare-fun var4659636 () (_ BitVec 64))
(declare-fun temp142_5 () (_ BitVec 64))
(declare-fun var5637942 () (_ BitVec 64))
(declare-fun var5837020 () (_ BitVec 64))
(declare-fun temp142_7 () (_ BitVec 64))
(declare-fun temp142_6 () (_ BitVec 64))
(declare-fun temp142_8 () (_ BitVec 64))
(declare-fun var6952993 () (_ BitVec 64))
(declare-fun temp142_9 () (_ BitVec 64))
(declare-fun var7210987 () (_ BitVec 64))
(declare-fun ARGNAME_input_NAMEEND_DIM () (_ BitVec 64))
(declare-fun temp142_11 () (_ BitVec 64))
(declare-fun temp142_10 () (_ BitVec 64))
(declare-fun var7277431 () (_ BitVec 64))
(declare-fun temp142_12 () (_ BitVec 64))
(declare-fun var7211048 () (_ BitVec 64))
(declare-fun temp142_13 () (_ BitVec 64))
(declare-fun var7211090 () (_ BitVec 64))
(declare-fun temp142_15 () (_ BitVec 64))
(declare-fun temp142_14 () (_ BitVec 64))
(declare-fun temp142_16 () (_ BitVec 64))
(declare-fun var7932920 () (_ BitVec 64))
(declare-fun var7211035 () (_ BitVec 64))
(declare-fun var7211034 () (_ BitVec 64))
(declare-fun temp142_17 () (_ BitVec 64))
(declare-fun var7211039 () (_ BitVec 64))
(declare-fun temp142_18 () (_ BitVec 64))
(declare-fun var7211041 () (_ BitVec 64))
(declare-fun temp142_19 () (_ BitVec 64))
(declare-fun temp142_20 () (_ BitVec 64))
(declare-fun var8326298 () (_ BitVec 64))
(declare-fun var8718542 () (_ BitVec 64))
(declare-fun temp142_21 () (_ BitVec 64))
(declare-fun var8718619 () (_ BitVec 64))
(declare-fun var8718540 () (_ BitVec 64))
(declare-fun var6953050 () (_ BitVec 64))
(declare-fun var6953051 () (_ BitVec 64))
(declare-fun temp142_22 () (_ BitVec 64))
(declare-fun var9441925 () (_ BitVec 64))
(declare-fun var9441929 () (_ BitVec 64))
(declare-fun var9441930 () (_ BitVec 64))
(assert (= temp142_1 #x0000000000000005))
(assert (= var2166536 temp142_1))
(assert (= temp142_3 #x0000000000000000))
(assert (= temp142_2 temp142_3))
(assert (= temp142_4 #x0000000000000000))
(assert (= var4659636 temp142_4))
(assert (= temp142_5 #x0000000000000001))
(assert (= var5637942 temp142_5))
(assert (= var5837020 var5637942))
(assert (= temp142_7 #x0000000000000000))
(assert (= temp142_6 temp142_7))
(assert (= temp142_8 #x0000000000000000))
(assert (= var6952993 temp142_8))
(assert (= temp142_9 #x0000000000000001))
(assert (= var7210987 (bvshl ARGNAME_input_NAMEEND_DIM temp142_9)))
(assert (= temp142_11 #x0000000000000000))
(assert (= temp142_10 temp142_11))
(assert (= var7277431 var7210987))
(assert (= temp142_12 #x0000000000000000))
(assert (= var7211048 temp142_12))
(assert (= temp142_13 #x0000000000000001))
(assert (= var7211090 temp142_13))
(assert (= temp142_15 #x0000000000000000))
(assert (= temp142_14 temp142_15))
(assert (= temp142_16 #x0000000000000001))
(assert (= var7932920 temp142_16))
(assert (= var7211035 var7211090))
(assert (= var7211034 var7211035))
(assert (= temp142_17 #x0000000000000001))
(assert (= var7211039 (bvand var7211034 temp142_17)))
(assert (= temp142_18 #x0000000000000000))
(assert (= var7211041
   (ite (= var7211039 temp142_18) #x0000000000000001 #x0000000000000000)))
(assert (= temp142_19 #x0000000000000000))
(assert (= var7211041 temp142_19))
(assert (= temp142_20 #x0000000000000000))
(assert (= var8326298 temp142_20))
(assert (= var8718542 var6952993))
(assert (= temp142_21 #x0000000000000001))
(assert (= var8718619 temp142_21))
(assert (= var8718540 var8718619))
(assert (= var6953050 var8718540))
(assert (= var6953051 var6953050))
(assert (= temp142_22 #x0000000000000004))
(assert (= var9441925 temp142_22))
(assert (= var9441929 var6953051))
(assert (= var9441930 var6952993))
(model-add temp142_1 () (_ BitVec 64) #x0000000000000005)
(model-add var2166536 () (_ BitVec 64) #x0000000000000005)
(model-add temp142_3 () (_ BitVec 64) #x0000000000000000)
(model-add temp142_2 () (_ BitVec 64) #x0000000000000000)
(model-add temp142_4 () (_ BitVec 64) #x0000000000000000)
(model-add var4659636 () (_ BitVec 64) #x0000000000000000)
(model-add temp142_5 () (_ BitVec 64) #x0000000000000001)
(model-add var5637942 () (_ BitVec 64) #x0000000000000001)
(model-add var5837020 () (_ BitVec 64) #x0000000000000001)
(model-add temp142_7 () (_ BitVec 64) #x0000000000000000)
(model-add temp142_6 () (_ BitVec 64) #x0000000000000000)
(model-add temp142_8 () (_ BitVec 64) #x0000000000000000)
(model-add var6952993 () (_ BitVec 64) #x0000000000000000)
(model-add temp142_9 () (_ BitVec 64) #x0000000000000001)
(model-add var7210987
           ()
           (_ BitVec 64)
           (concat ((_ extract 62 0) ARGNAME_input_NAMEEND_DIM) #b0))
(model-add temp142_11 () (_ BitVec 64) #x0000000000000000)
(model-add temp142_10 () (_ BitVec 64) #x0000000000000000)
(model-add var7277431
           ()
           (_ BitVec 64)
           (concat ((_ extract 62 0) ARGNAME_input_NAMEEND_DIM) #b0))
(model-add temp142_12 () (_ BitVec 64) #x0000000000000000)
(model-add var7211048 () (_ BitVec 64) #x0000000000000000)
(model-add temp142_13 () (_ BitVec 64) #x0000000000000001)
(model-add var7211090 () (_ BitVec 64) #x0000000000000001)
(model-add temp142_15 () (_ BitVec 64) #x0000000000000000)
(model-add temp142_14 () (_ BitVec 64) #x0000000000000000)
(model-add temp142_16 () (_ BitVec 64) #x0000000000000001)
(model-add var7932920 () (_ BitVec 64) #x0000000000000001)
(model-add var7211035 () (_ BitVec 64) #x0000000000000001)
(model-add var7211034 () (_ BitVec 64) #x0000000000000001)
(model-add temp142_17 () (_ BitVec 64) #x0000000000000001)
(model-add var7211039 () (_ BitVec 64) #x0000000000000001)
(model-add temp142_18 () (_ BitVec 64) #x0000000000000000)
(model-add var7211041 () (_ BitVec 64) #x0000000000000000)
(model-add temp142_19 () (_ BitVec 64) #x0000000000000000)






